# Solution for model GasLib-40
# Objective value = 2.2849610214414408e+01
loadshed[innode_1] 0
loadshed[innode_2] 0
loadshed[innode_3] 0
loadshed[innode_4] 0
loadshed[innode_5] 0
loadshed[innode_6] 0
loadshed[innode_7] 0
loadshed[innode_8] 0
loadshed[source_1] -1.8227804657443691e-01
loadshed[source_2] -1.4910663720538508e-02
loadshed[source_3] 0.341723912178334
loadshed[sink_1] 0
loadshed[sink_2] 0
loadshed[sink_3] 0
loadshed[sink_4] 0
loadshed[sink_5] 0
loadshed[sink_6] 0
loadshed[sink_7] 0
loadshed[sink_8] 0
loadshed[sink_9] 0
loadshed[sink_10] 0
loadshed[sink_11] 0
loadshed[sink_12] 1
loadshed[sink_13] 0
loadshed[sink_14] 0
loadshed[sink_15] 0
loadshed[sink_16] 0
loadshed[sink_17] 0
loadshed[sink_18] 0
loadshed[sink_19] 0
loadshed[sink_20] 0
loadshed[sink_21] 3.9717361820623120e-01
loadshed[sink_22] 0
loadshed[sink_23] 0
loadshed[sink_24] 0
loadshed[sink_25] 0
loadshed[sink_26] 0
loadshed[sink_27] 0
loadshed[sink_28] 0
loadshed[sink_29] 0
flow[source_1,sink_3] 1.8690666479352120e+02
flow[innode_1,sink_16] 1.6354166666666970e+01
flow[innode_6,sink_13] 1.0412117088470884e+01
flow[sink_13,sink_14] -5.9420495781957836e+00
flow[sink_14,sink_10] -2.2296216244862762e+01
flow[sink_25,sink_26] 1.5595204565905911e+02
flow[sink_26,sink_9] 8.1770833333333655e+01
flow[sink_9,sink_18] 6.5416666666666671e+01
flow[sink_26,sink_4] 57.8270456590588
flow[sink_4,sink_20] -3.3802510793193505e+01
flow[sink_18,sink_6] 4.9062500000000313e+01
flow[sink_25,innode_8] -1.5419833146018485e+02
flow[sink_6,sink_7] 0
flow[sink_6,sink_22] 3.2708333333333641e+01
flow[sink_7,sink_24] 26.2128897855856
flow[sink_22,sink_1] 1.6354166666666970e+01
flow[sink_24,sink_21] 9.8587231189189275e+00
flow[sink_21,sink_12] 0
flow[sink_7,sink_5] -4.2567056452252260e+01
flow[sink_5,sink_17] -5.8921223118918931e+01
flow[sink_17,sink_4] -7.5275389785585588e+01
flow[sink_17,sink_8] 0
flow[sink_3,sink_23] 16.3541666666697
flow[sink_8,sink_20] -1.6354166666668334e+01
flow[sink_25,sink_20] 6.6510844126528411e+01
flow[sink_25,sink_15] -9.5030842080540836e+01
flow[sink_15,sink_29] -6.2173960882514848e+01
flow[sink_29,sink_28] 1.6354166666667879e+01
flow[sink_29,sink_2] 6.5565214531359331e+01
flow[sink_2,sink_15] 4.9211047864692659e+01
flow[sink_29,innode_7] -1.6044750874720873e+02
flow[innode_4,sink_19] 3.9712805514403165e+01
flow[sink_19,innode_3] 7.1358716244862890e+01
flow[innode_4,innode_5] 6.4354244063792862e+01
flow[sink_27,innode_5] -6.4354244063792862e+01
flow[sink_27,sink_19] 4.8000077397126191e+01
flow[sink_10,sink_11] 3.2708333333333641e+01
flow[sink_10,innode_2] 0
flow[sink_10,innode_3] -7.1358716244862890e+01
flow[innode_6,sink_25] -1.0412117088470884e+01
flow[sink_11,innode_1] 1.6354166666666970e+01
flow[sink_19,innode_2] 0
flow[source_3,innode_4] 1.0406704957819602e+02
flow[source_2,innode_7] 1.6044750874720873e+02
flow[sink_3,innode_8] 1.5419833146018485e+02
pressure[innode_1] 7.5295523360961710e+01
pressure[innode_2] 7.9404383059806349e+01
pressure[innode_3] 7.9246367263180119e+01
pressure[innode_4] 81.01325
pressure[innode_5] 8.0968983757523119e+01
pressure[innode_6] 7.4439411404937545e+01
pressure[innode_7] 81.01325
pressure[innode_8] 80.3884924205292
pressure[source_1] 81.01325
pressure[source_2] 81.01325
pressure[source_3] 81.01325
pressure[sink_1] 5.2783442581170462e+01
pressure[sink_2] 7.5061066814493614e+01
pressure[sink_3] 80.3884924205292
pressure[sink_4] 5.6103520166559349e+01
pressure[sink_5] 4.8837537754353363e+01
pressure[sink_6] 5.4884520191557833e+01
pressure[sink_7] 31.1342318507348
pressure[sink_8] 5.7443774107856832e+01
pressure[sink_9] 5.8561604995016118e+01
pressure[sink_10] 7.5447224668565255e+01
pressure[sink_11] 7.5295523360961710e+01
pressure[sink_12] 1.0132499999999947e+00
pressure[sink_13] 7.4382011143455216e+01
pressure[sink_14] 7.4392644947326090e+01
pressure[sink_15] 7.4900403589155644e+01
pressure[sink_16] 7.4273873526144030e+01
pressure[sink_17] 5.3226742981879482e+01
pressure[sink_18] 5.6194635019817461e+01
pressure[sink_19] 7.9404383059806349e+01
pressure[sink_20] 5.8583429531445120e+01
pressure[sink_21] 1.0132499999999947e+00
pressure[sink_22] 5.3847211723525469e+01
pressure[sink_23] 8.0223774408869417e+01
pressure[sink_24] 1.1224261986958197e+00
pressure[sink_25] 7.4439411404937545e+01
pressure[sink_26] 6.3455800414727470e+01
pressure[sink_27] 8.0434962445650569e+01
pressure[sink_28] 7.6426625419788365e+01
pressure[sink_29] 7.6721907693405555e+01
interdiction[source_1,sink_3] 0
interdiction[innode_1,sink_16] 0
interdiction[innode_6,sink_13] 0
interdiction[sink_13,sink_14] 0
interdiction[sink_14,sink_10] 0
interdiction[sink_25,sink_26] 0
interdiction[sink_26,sink_9] 0
interdiction[sink_9,sink_18] 0
interdiction[sink_26,sink_4] 0
interdiction[sink_4,sink_20] 0
interdiction[sink_18,sink_6] 0
interdiction[sink_25,innode_8] 0
interdiction[sink_6,sink_7] 1
interdiction[sink_6,sink_22] 0
interdiction[sink_7,sink_24] 0
interdiction[sink_22,sink_1] 0
interdiction[sink_24,sink_21] 0
interdiction[sink_21,sink_12] 0
interdiction[sink_7,sink_5] 0
interdiction[sink_5,sink_17] 0
interdiction[sink_17,sink_4] 0
interdiction[sink_17,sink_8] 1
interdiction[sink_3,sink_23] 0
interdiction[sink_8,sink_20] 0
interdiction[sink_25,sink_20] 0
interdiction[sink_25,sink_15] 0
interdiction[sink_15,sink_29] 0
interdiction[sink_29,sink_28] 0
interdiction[sink_29,sink_2] 0
interdiction[sink_2,sink_15] 0
interdiction[sink_29,innode_7] 0
interdiction[innode_4,sink_19] 0
interdiction[sink_19,innode_3] 0
interdiction[innode_4,innode_5] 0
interdiction[sink_27,innode_5] 0
interdiction[sink_27,sink_19] 0
interdiction[sink_10,sink_11] 0
interdiction[sink_10,innode_2] 1
interdiction[sink_10,innode_3] 0
interdiction[innode_6,sink_25] 0
interdiction[sink_11,innode_1] 0
interdiction[sink_19,innode_2] 0
interdiction[source_3,innode_4] 0
interdiction[source_2,innode_7] 0
interdiction[sink_3,innode_8] 0
WCcheckFlow[source_1,sink_3] 39
WCcheckFlow[innode_1,sink_16] 1
WCcheckFlow[innode_6,sink_13] 13
WCcheckFlow[sink_13,sink_14] 12
WCcheckFlow[sink_14,sink_10] 11
WCcheckFlow[sink_25,sink_26] 15
WCcheckFlow[sink_26,sink_9] 5
WCcheckFlow[sink_9,sink_18] 4
WCcheckFlow[sink_26,sink_4] 9
WCcheckFlow[sink_4,sink_20] 2
WCcheckFlow[sink_18,sink_6] 3
WCcheckFlow[sink_25,innode_8] -36
WCcheckFlow[sink_6,sink_7] 0
WCcheckFlow[sink_6,sink_22] 2
WCcheckFlow[sink_7,sink_24] 3
WCcheckFlow[sink_22,sink_1] 1
WCcheckFlow[sink_24,sink_21] 2
WCcheckFlow[sink_21,sink_12] 1
WCcheckFlow[sink_7,sink_5] -4
WCcheckFlow[sink_5,sink_17] -5
WCcheckFlow[sink_17,sink_4] -6
WCcheckFlow[sink_17,sink_8] 0
WCcheckFlow[sink_3,sink_23] 1
WCcheckFlow[sink_8,sink_20] -1
WCcheckFlow[sink_25,sink_20] 0
WCcheckFlow[sink_25,sink_15] 6
WCcheckFlow[sink_15,sink_29] 5
WCcheckFlow[sink_29,sink_28] 1
WCcheckFlow[sink_29,sink_2] 1
WCcheckFlow[sink_2,sink_15] 0
WCcheckFlow[sink_29,innode_7] 2
WCcheckFlow[innode_4,sink_19] -4
WCcheckFlow[sink_19,innode_3] -6
WCcheckFlow[innode_4,innode_5] 2
WCcheckFlow[sink_27,innode_5] -1
WCcheckFlow[sink_27,sink_19] 0
WCcheckFlow[sink_10,sink_11] 3
WCcheckFlow[sink_10,innode_2] 0
WCcheckFlow[sink_10,innode_3] 7
WCcheckFlow[innode_6,sink_25] -14
WCcheckFlow[sink_11,innode_1] 2
WCcheckFlow[sink_19,innode_2] 1
WCcheckFlow[source_3,innode_4] -1
WCcheckFlow[source_2,innode_7] -1
WCcheckFlow[sink_3,innode_8] 37
